(declare-fun x6 () Real)
(declare-fun x5 () Real)
(declare-fun x4 () Real)
(declare-fun x3 () Real)
(declare-fun x1 () Real)
(assert (let ((a!1 (= (- (+ x4 (* 3 x5)) (* 2 x6)) 0)))
  (and (= (+ x1 x3) 0) a!1)))

